%%% static parameters %%%
timespan = 1;
Fact = [4];
Distr1 = [15];
Distr2 = [20];
Clients_N = [300];
Demand_W = [15];
Lt0 = [4];
Lt1 = [4];
SS_ = [0.85];
DS_D = [8];
K = [200];
MA = [500];
%%% dynamic parameters %%%
lost_ratio_sales_ret_th = 0.015618884975999149;
lost_ratio_sales_ret_w = 69;
lost_ratio_sales_dis_th = 0.03894769763827839;
lost_ratio_sales_dis_w = 18;
lost_ratio_sales_fac_th = 0.04332780214468138;
lost_ratio_sales_fac_w = 90;
stock_customer_MA_mean_relative_th = 0.7273191718978841;
stock_customer_MA_mean_relative_w = 98;
stock_distributor_MA_mean_relative_th = 0.7843650480043292;
stock_distributor_MA_mean_relative_w = 22;
stock_retailer_MA_mean_relative_th = 0.70524015139631;
stock_retailer_MA_mean_relative_w = 70;
stock_factory_MA_mean_relative_th = 0.9137099739213675;
stock_factory_MA_mean_relative_w = 7;
